run-0095-master_qf_nia_12_17_2024/data/non-incremental/QF_NIA/20170427-VeryMax/ITS/From_AProVE_2014__RSA.jar-obl-17__p11914_terminationG_0.smt2.out
sat
(:added-eqs                       12407
 :arith-eq-adapter                1331
 :arith-bound-propagations-lp     459
 :arith-branch                    6
 :arith-conflicts                 4426
 :arith-cube-calls                2
 :arith-diseq                     8380
 :arith-fixed-eqs                 999
 :arith-gcd-calls                 285
 :arith-gomory-cuts               2
 :arith-grobner-calls             332
 :arith-grobner-conflicts         148
 :arith-hnf-calls                 1
 :arith-horner-calls              102
 :arith-horner-conflicts          3
 :arith-horner-cross-nested-forms 27797
 :arith-lower                     11622
 :arith-make-feasible             9292
 :arith-max-columns               1254
 :arith-max-rows                  533
 :arith-nla-add-bounds            184
 :arith-nla-lemmas                1779
 :arith-nla-propagate-bounds      2490
 :arith-nla-propagate-eq          4383
 :arith-nra-calls                 58
 :arith-offset-eqs                760
 :arith-patches                   285
 :arith-patches-success           278
 :arith-upper                     13914
 :binary-propagations             24701
 :cnf-encoding-aux-vars           7
 :conflicts                       400
 :decisions                       33705
 :del-clause                      4246
 :elim-unconstrained              57
 :final-checks                    911
 :max-memory                      156.78
 :memory                          96.64
 :minimized-lits                  14
 :mk-bool-var                     11565
 :mk-clause                       5679
 :mk-clause-binary                11924
 :nlsat-conflicts                 6899
 :nlsat-decisions                 728
 :nlsat-propagations              370486
 :nlsat-restarts                  3
 :nlsat-stages                    176220
 :num-allocs                      8656239782.00
 :num-checks                      2
 :propagations                    39573
 :restarts                        3
 :rlimit-count                    8186846
 :sat-mk-clause-2ary              17694
 :sat-mk-clause-nary              30069
 :sat-mk-var                      13426
 :solve-eqs-elim-vars             52
 :solve-eqs-steps                 539
 :time                            15.75
 :total-time                      15.76)
